<number of tasks>
50

<cycle time>
1000

<order strength>
0.595


<task times>
1 444
2 381
3 554
4 520
5 628
6 812
7 458
8 565
9 512
10 459
11 481
12 572
13 416
14 593
15 379
16 707
17 484
18 668
19 596
20 686
21 439
22 518
23 625
24 561
25 427
26 528
27 649
28 519
29 383
30 447
31 420
32 574
33 509
34 356
35 383
36 422
37 542
38 443
39 480
40 533
41 582
42 731
43 454
44 567
45 508
46 294
47 470
48 619
49 448
50 466

<precedence relations>
1,12
2,34
3,10
3,11
3,12
4,6
5,6
5,7
5,8
5,9
5,13
6,12
7,12
8,12
9,12
10,14
10,15
10,16
10,25
11,13
11,23
11,34
11,35
12,17
12,18
12,19
12,20
12,21
13,42
14,22
14,24
14,32
15,23
15,30
15,31
16,26
16,27
16,28
17,26
17,30
18,24
18,25
20,25
20,27
21,24
21,32
21,33
22,34
24,27
24,31
25,26
25,28
26,42
27,34
28,29
28,30
28,31
28,32
28,33
29,42
30,34
31,34
33,35
33,45
34,36
34,37
34,38
34,39
34,40
34,41
35,36
35,43
36,42
38,45
40,43
40,44
41,43
42,46
42,47
42,48
42,49
42,50

<end>
